tps_eleves/tps_eleves/linear_prog/question2/question2.lp-pulp.sol
Optimal - objective value 431400.00000000
      0 C0000000            1000                      20
      1 C0000001            1600                     100
      2 C0000002             800                    6000
      3 C0000003             900                      20
      0 X0000000               0                    5980
      1 X0000001               0                    5900
      2 X0000002              50                       0
      3 X0000003               0                    5980
      4 X0000004            1000                       0
      5 X0000005               0                      24
      6 X0000006               0                      80
      7 X0000007            1000                     -80
      8 X0000008             550                     -56
      9 X0000009              50                       0
     10 X0000010               0                   -5980
     11 X0000011             550                   -5956
     12 X0000012             200                   -5900
     13 X0000013             900                       0
     14 X0000014               0                      24
     15 X0000015               0                      80
